tg_final/aeval/bench_horn_adt/log-2023-04-19-10-48-12/list_rev_len.smt2.out
((append _FH_0' _FH_1')=_FH_2')
(forall ((Lst)) ((append nil _FH_2')=_FH_2'))
(forall (INT (Lst) (Lst)) ((append (cons x _FH_0) _FH_1)=(cons x (append _FH_0 _FH_1))))
((rev _FH_3')=_FH_4')
((rev nil)=nil)
(forall (INT (Lst)) ((rev (cons x _FH_3))=(append (rev _FH_3) (cons x nil))))
((length _FH_5')=_FH_6')
((length nil)=0)
(forall (INT (Lst)) (true->((length (cons x _FH_5))=((length _FH_5)+1))))
sat
